Instance: E256-14k.dat
Class:  2
255 --- number of customers (no depot)
47 --- number of vehicles
255 --- number of items
Capacity - height - width of vehicles
  1000     40     20
Node - x - y - demand  Readytime Duetime
  0.00    0.00 -15.00   0.00 0       180.00
  1.00   -1.00 -14.00 300.00  41.00   71.00
  2.00    1.00 -14.00 300.00 108.00  123.00
  3.00   -2.00 -13.00 180.00 122.00  141.00
  4.00    0.00 -13.00 300.00 125.00  142.00
  5.00    2.00 -13.00 180.00 119.00  138.00
  6.00   -3.00 -12.00 128.00  83.00  100.00
  7.00   -1.00 -12.00 180.00  12.00   30.00
  8.00    1.00 -12.00 180.00  68.00   95.00
  9.00    3.00 -12.00 128.00  42.00   58.00
 10.00   -4.00 -11.00 100.00  59.00   86.00
 11.00   -2.00 -11.00 128.00 104.00  133.00
 12.00    0.00 -11.00 180.00  21.00   48.00
 13.00    2.00 -11.00 128.00 139.00  162.00
 14.00    4.00 -11.00 100.00 121.00  142.00
 15.00   -5.00 -10.00  81.00  90.00  120.00
 16.00   -3.00 -10.00 100.00   1.00   31.00
 17.00   -1.00 -10.00 128.00 123.00  148.00
 18.00    1.00 -10.00 128.00  37.00   57.00
 19.00    3.00 -10.00 100.00  99.00  114.00
 20.00    5.00 -10.00  81.00  80.00   99.00
 21.00   -6.00  -9.00  69.00  31.00   50.00
 22.00   -4.00  -9.00  81.00  60.00   82.00
 23.00   -2.00  -9.00 100.00   9.00   31.00
 24.00    0.00  -9.00 128.00  57.00   84.00
 25.00    2.00  -9.00 100.00  14.00   35.00
 26.00    4.00  -9.00  81.00 133.00  150.00
 27.00    6.00  -9.00  69.00  16.00   33.00
 28.00   -7.00  -8.00  60.00  90.00  115.00
 29.00   -5.00  -8.00  69.00  85.00  105.00
 30.00   -3.00  -8.00  81.00 146.00  161.00
 31.00   -1.00  -8.00 100.00  60.00   89.00
 32.00    1.00  -8.00 100.00  23.00   46.00
 33.00    3.00  -8.00  81.00  96.00  114.00
 34.00    5.00  -8.00  69.00  71.00   97.00
 35.00    7.00  -8.00  60.00  81.00  108.00
 36.00   -8.00  -7.00  52.00  47.00   68.00
 37.00   -6.00  -7.00  60.00  66.00   96.00
 38.00   -4.00  -7.00  69.00 101.00  118.00
 39.00   -2.00  -7.00  81.00  98.00  125.00
 40.00    0.00  -7.00 100.00  60.00   77.00
 41.00    2.00  -7.00  81.00  72.00   92.00
 42.00    4.00  -7.00  69.00  70.00   89.00
 43.00    6.00  -7.00  60.00  83.00  113.00
 44.00    8.00  -7.00  52.00  82.00  106.00
 45.00   -9.00  -6.00  47.00 133.00  162.00
 46.00   -7.00  -6.00  52.00 141.00  163.00
 47.00   -5.00  -6.00  60.00  96.00  113.00
 48.00   -3.00  -6.00  69.00  35.00   51.00
 49.00   -1.00  -6.00  81.00 145.00  160.00
 50.00    1.00  -6.00  81.00 108.00  125.00
 51.00    3.00  -6.00  69.00 118.00  141.00
 52.00    5.00  -6.00  60.00  16.00   42.00
 53.00    7.00  -6.00  52.00  80.00   97.00
 54.00    9.00  -6.00  47.00  28.00   56.00
 55.00  -10.00  -5.00  42.00 102.00  123.00
 56.00   -8.00  -5.00  47.00 108.00  125.00
 57.00   -6.00  -5.00  52.00 112.00  140.00
 58.00   -4.00  -5.00  60.00  15.00   36.00
 59.00   -2.00  -5.00  69.00 132.00  159.00
 60.00    0.00  -5.00  81.00  20.00   47.00
 61.00    2.00  -5.00  69.00  93.00  112.00
 62.00    4.00  -5.00  60.00  56.00   78.00
 63.00    6.00  -5.00  52.00 125.00  143.00
 64.00    8.00  -5.00  47.00  66.00   92.00
 65.00   10.00  -5.00  42.00  99.00  117.00
 66.00  -11.00  -4.00  39.00  24.00   52.00
 67.00   -9.00  -4.00  42.00  78.00  104.00
 68.00   -7.00  -4.00  47.00 128.00  144.00
 69.00   -5.00  -4.00  52.00  97.00  124.00
 70.00   -3.00  -4.00  60.00  83.00  110.00
 71.00   -1.00  -4.00  69.00  21.00   45.00
 72.00    1.00  -4.00  69.00  53.00   73.00
 73.00    3.00  -4.00  60.00 106.00  131.00
 74.00    5.00  -4.00  52.00 122.00  151.00
 75.00    7.00  -4.00  47.00  80.00  103.00
 76.00    9.00  -4.00  42.00  72.00   91.00
 77.00   11.00  -4.00  39.00  86.00  113.00
 78.00  -12.00  -3.00  36.00  45.00   64.00
 79.00  -10.00  -3.00  39.00  48.00   71.00
 80.00   -8.00  -3.00  42.00 116.00  145.00
 81.00   -6.00  -3.00  47.00 107.00  130.00
 82.00   -4.00  -3.00  52.00  60.00   86.00
 83.00   -2.00  -3.00  60.00  20.00   36.00
 84.00    0.00  -3.00  69.00  67.00   86.00
 85.00    2.00  -3.00  60.00  56.00   86.00
 86.00    4.00  -3.00  52.00  20.00   46.00
 87.00    6.00  -3.00  47.00 105.00  126.00
 88.00    8.00  -3.00  42.00  71.00   93.00
 89.00   10.00  -3.00  39.00  49.00   65.00
 90.00   12.00  -3.00  36.00  67.00   82.00
 91.00  -13.00  -2.00  33.00 137.00  158.00
 92.00  -11.00  -2.00  36.00 100.00  115.00
 93.00   -9.00  -2.00  39.00   5.00   31.00
 94.00   -7.00  -2.00  42.00  79.00  106.00
 95.00   -5.00  -2.00  47.00 117.00  137.00
 96.00   -3.00  -2.00  52.00  91.00  111.00
 97.00   -1.00  -2.00  60.00  98.00  117.00
 98.00    1.00  -2.00  60.00  42.00   57.00
 99.00    3.00  -2.00  52.00  93.00  122.00
100.00    5.00  -2.00  47.00  88.00  114.00
101.00    7.00  -2.00  42.00 114.00  143.00
102.00    9.00  -2.00  39.00 117.00  133.00
103.00   11.00  -2.00  36.00 114.00  141.00
104.00   13.00  -2.00  33.00 124.00  151.00
105.00  -14.00  -1.00  31.00 102.00  117.00
106.00  -12.00  -1.00  33.00  28.00   46.00
107.00  -10.00  -1.00  36.00 127.00  142.00
108.00   -8.00  -1.00  39.00 104.00  126.00
109.00   -6.00  -1.00  42.00  87.00  113.00
110.00   -4.00  -1.00  47.00 129.00  147.00
111.00   -2.00  -1.00  52.00  92.00  119.00
112.00    0.00  -1.00  60.00  71.00   86.00
113.00    2.00  -1.00  52.00  18.00   42.00
114.00    4.00  -1.00  47.00  68.00   94.00
115.00    6.00  -1.00  42.00 125.00  150.00
116.00    8.00  -1.00  39.00  37.00   61.00
117.00   10.00  -1.00  36.00 128.00  158.00
118.00   12.00  -1.00  33.00  35.00   58.00
119.00   14.00  -1.00  31.00  52.00   76.00
120.00  -15.00   0.00  29.00 117.00  139.00
121.00  -13.00   0.00  31.00  90.00  106.00
122.00  -11.00   0.00  33.00 121.00  149.00
123.00   -9.00   0.00  36.00 131.00  153.00
124.00   -7.00   0.00  39.00 106.00  122.00
125.00   -5.00   0.00  42.00  21.00   43.00
126.00   -3.00   0.00  47.00  72.00   92.00
127.00   -1.00   0.00  52.00 113.00  143.00
128.00    1.00   0.00  52.00  77.00   95.00
129.00    3.00   0.00  47.00  32.00   47.00
130.00    5.00   0.00  42.00  66.00   82.00
131.00    7.00   0.00  39.00  37.00   57.00
132.00    9.00   0.00  36.00 129.00  159.00
133.00   11.00   0.00  33.00  84.00  109.00
134.00   13.00   0.00  31.00 121.00  143.00
135.00   15.00   0.00  29.00 104.00  128.00
136.00  -14.00   1.00  29.00 125.00  143.00
137.00  -12.00   1.00  31.00 140.00  162.00
138.00  -10.00   1.00  33.00 104.00  122.00
139.00   -8.00   1.00  36.00  14.00   30.00
140.00   -6.00   1.00  39.00  68.00   97.00
141.00   -4.00   1.00  42.00 131.00  158.00
142.00   -2.00   1.00  47.00  50.00   73.00
143.00    0.00   1.00  52.00 119.00  146.00
144.00    2.00   1.00  47.00  66.00   86.00
145.00    4.00   1.00  42.00  20.00   49.00
146.00    6.00   1.00  39.00  52.00   69.00
147.00    8.00   1.00  36.00  36.00   57.00
148.00   10.00   1.00  33.00  73.00   96.00
149.00   12.00   1.00  31.00  60.00   83.00
150.00   14.00   1.00  29.00 106.00  132.00
151.00  -13.00   2.00  29.00  14.00   37.00
152.00  -11.00   2.00  31.00  14.00   44.00
153.00   -9.00   2.00  33.00  39.00   55.00
154.00   -7.00   2.00  36.00 101.00  129.00
155.00   -5.00   2.00  39.00 137.00  163.00
156.00   -3.00   2.00  42.00   9.00   38.00
157.00   -1.00   2.00  47.00  73.00   96.00
158.00    1.00   2.00  47.00  24.00   49.00
159.00    3.00   2.00  42.00 121.00  138.00
160.00    5.00   2.00  39.00  53.00   71.00
161.00    7.00   2.00  36.00 128.00  145.00
162.00    9.00   2.00  33.00 113.00  130.00
163.00   11.00   2.00  31.00  84.00  106.00
164.00   13.00   2.00  29.00  63.00   91.00
165.00  -12.00   3.00  29.00 122.00  145.00
166.00  -10.00   3.00  31.00 107.00  131.00
167.00   -8.00   3.00  33.00 130.00  157.00
168.00   -6.00   3.00  36.00  23.00   50.00
169.00   -4.00   3.00  39.00 118.00  139.00
170.00   -2.00   3.00  42.00  73.00   88.00
171.00    0.00   3.00  47.00 118.00  142.00
172.00    2.00   3.00  42.00  35.00   60.00
173.00    4.00   3.00  39.00 115.00  145.00
174.00    6.00   3.00  36.00  59.00   75.00
175.00    8.00   3.00  33.00  50.00   76.00
176.00   10.00   3.00  31.00  92.00  120.00
177.00   12.00   3.00  29.00  49.00   69.00
178.00  -11.00   4.00  29.00  79.00   97.00
179.00   -9.00   4.00  31.00  10.00   37.00
180.00   -7.00   4.00  33.00  69.00   87.00
181.00   -5.00   4.00  36.00  46.00   68.00
182.00   -3.00   4.00  39.00  43.00   73.00
183.00   -1.00   4.00  42.00  82.00  111.00
184.00    1.00   4.00  42.00 146.00  162.00
185.00    3.00   4.00  39.00 114.00  139.00
186.00    5.00   4.00  36.00  62.00   82.00
187.00    7.00   4.00  33.00  90.00  108.00
188.00    9.00   4.00  31.00 112.00  137.00
189.00   11.00   4.00  29.00  16.00   34.00
190.00  -10.00   5.00  29.00 140.00  164.00
191.00   -8.00   5.00  31.00 110.00  128.00
192.00   -6.00   5.00  33.00  73.00   97.00
193.00   -4.00   5.00  36.00 115.00  142.00
194.00   -2.00   5.00  39.00  76.00  100.00
195.00    0.00   5.00  42.00  69.00   97.00
196.00    2.00   5.00  39.00 132.00  157.00
197.00    4.00   5.00  36.00 117.00  139.00
198.00    6.00   5.00  33.00 101.00  120.00
199.00    8.00   5.00  31.00 126.00  142.00
200.00   10.00   5.00  29.00  14.00   39.00
201.00   -9.00   6.00  29.00  71.00   93.00
202.00   -7.00   6.00  31.00  72.00   88.00
203.00   -5.00   6.00  33.00  52.00   77.00
204.00   -3.00   6.00  36.00  88.00  103.00
205.00   -1.00   6.00  39.00 113.00  139.00
206.00    1.00   6.00  39.00 128.00  153.00
207.00    3.00   6.00  36.00 122.00  137.00
208.00    5.00   6.00  33.00  31.00   61.00
209.00    7.00   6.00  31.00  36.00   53.00
210.00    9.00   6.00  29.00 142.00  163.00
211.00   -8.00   7.00  29.00 115.00  138.00
212.00   -6.00   7.00  31.00  67.00   97.00
213.00   -4.00   7.00  33.00  60.00   85.00
214.00   -2.00   7.00  36.00 103.00  124.00
215.00    0.00   7.00  39.00 138.00  163.00
216.00    2.00   7.00  36.00  54.00   74.00
217.00    4.00   7.00  33.00  63.00   84.00
218.00    6.00   7.00  31.00  79.00  106.00
219.00    8.00   7.00  29.00  57.00   75.00
220.00   -7.00   8.00  29.00  27.00   53.00
221.00   -5.00   8.00  31.00 127.00  142.00
222.00   -3.00   8.00  33.00  95.00  112.00
223.00   -1.00   8.00  36.00 131.00  156.00
224.00    1.00   8.00  36.00 105.00  132.00
225.00    3.00   8.00  33.00  57.00   74.00
226.00    5.00   8.00  31.00  35.00   64.00
227.00    7.00   8.00  29.00 141.00  158.00
228.00   -6.00   9.00  29.00  75.00  102.00
229.00   -4.00   9.00  31.00 125.00  147.00
230.00   -2.00   9.00  33.00   6.00   32.00
231.00    0.00   9.00  36.00   7.00   32.00
232.00    2.00   9.00  33.00  25.00   45.00
233.00    4.00   9.00  31.00  80.00  102.00
234.00    6.00   9.00  29.00   2.00   32.00
235.00   -5.00  10.00  29.00 115.00  141.00
236.00   -3.00  10.00  31.00  56.00   79.00
237.00   -1.00  10.00  33.00  78.00  104.00
238.00    1.00  10.00  33.00  45.00   68.00
239.00    3.00  10.00  31.00  29.00   48.00
240.00    5.00  10.00  29.00  69.00   86.00
241.00   -4.00  11.00  29.00  92.00  119.00
242.00   -2.00  11.00  31.00 131.00  152.00
243.00    0.00  11.00  33.00   9.00   32.00
244.00    2.00  11.00  31.00  69.00   90.00
245.00    4.00  11.00  29.00 120.00  140.00
246.00   -3.00  12.00  29.00 139.00  156.00
247.00   -1.00  12.00  31.00  73.00   89.00
248.00    1.00  12.00  31.00  47.00   65.00
249.00    3.00  12.00  29.00  28.00   49.00
250.00   -2.00  13.00  29.00  42.00   58.00
251.00    0.00  13.00  31.00  34.00   52.00
252.00    2.00  13.00  29.00 101.00  129.00
253.00   -1.00  14.00  29.00  37.00   63.00
254.00    1.00  14.00  29.00 120.00  146.00
255.00    0.00  15.00  29.00 142.00  160.00
Node - number of items - h - w for each item
    0   0
    1   1    1    1
    2   1    1    1
    3   1    1    1
    4   1    1    1
    5   1    1    1
    6   1    1    1
    7   1    1    1
    8   1    1    1
    9   1    1    1
   10   1    1    1
   11   1    1    1
   12   1    1    1
   13   1    1    1
   14   1    1    1
   15   1    1    1
   16   1    1    1
   17   1    1    1
   18   1    1    1
   19   1    1    1
   20   1    1    1
   21   1    1    1
   22   1    1    1
   23   1    1    1
   24   1    1    1
   25   1    1    1
   26   1    1    1
   27   1    1    1
   28   1    1    1
   29   1    1    1
   30   1    1    1
   31   1    1    1
   32   1    1    1
   33   1    1    1
   34   1    1    1
   35   1    1    1
   36   1    1    1
   37   1    1    1
   38   1    1    1
   39   1    1    1
   40   1    1    1
   41   1    1    1
   42   1    1    1
   43   1    1    1
   44   1    1    1
   45   1    1    1
   46   1    1    1
   47   1    1    1
   48   1    1    1
   49   1    1    1
   50   1    1    1
   51   1    1    1
   52   1    1    1
   53   1    1    1
   54   1    1    1
   55   1    1    1
   56   1    1    1
   57   1    1    1
   58   1    1    1
   59   1    1    1
   60   1    1    1
   61   1    1    1
   62   1    1    1
   63   1    1    1
   64   1    1    1
   65   1    1    1
   66   1    1    1
   67   1    1    1
   68   1    1    1
   69   1    1    1
   70   1    1    1
   71   1    1    1
   72   1    1    1
   73   1    1    1
   74   1    1    1
   75   1    1    1
   76   1    1    1
   77   1    1    1
   78   1    1    1
   79   1    1    1
   80   1    1    1
   81   1    1    1
   82   1    1    1
   83   1    1    1
   84   1    1    1
   85   1    1    1
   86   1    1    1
   87   1    1    1
   88   1    1    1
   89   1    1    1
   90   1    1    1
   91   1    1    1
   92   1    1    1
   93   1    1    1
   94   1    1    1
   95   1    1    1
   96   1    1    1
   97   1    1    1
   98   1    1    1
   99   1    1    1
  100   1    1    1
  101   1    1    1
  102   1    1    1
  103   1    1    1
  104   1    1    1
  105   1    1    1
  106   1    1    1
  107   1    1    1
  108   1    1    1
  109   1    1    1
  110   1    1    1
  111   1    1    1
  112   1    1    1
  113   1    1    1
  114   1    1    1
  115   1    1    1
  116   1    1    1
  117   1    1    1
  118   1    1    1
  119   1    1    1
  120   1    1    1
  121   1    1    1
  122   1    1    1
  123   1    1    1
  124   1    1    1
  125   1    1    1
  126   1    1    1
  127   1    1    1
  128   1    1    1
  129   1    1    1
  130   1    1    1
  131   1    1    1
  132   1    1    1
  133   1    1    1
  134   1    1    1
  135   1    1    1
  136   1    1    1
  137   1    1    1
  138   1    1    1
  139   1    1    1
  140   1    1    1
  141   1    1    1
  142   1    1    1
  143   1    1    1
  144   1    1    1
  145   1    1    1
  146   1    1    1
  147   1    1    1
  148   1    1    1
  149   1    1    1
  150   1    1    1
  151   1    1    1
  152   1    1    1
  153   1    1    1
  154   1    1    1
  155   1    1    1
  156   1    1    1
  157   1    1    1
  158   1    1    1
  159   1    1    1
  160   1    1    1
  161   1    1    1
  162   1    1    1
  163   1    1    1
  164   1    1    1
  165   1    1    1
  166   1    1    1
  167   1    1    1
  168   1    1    1
  169   1    1    1
  170   1    1    1
  171   1    1    1
  172   1    1    1
  173   1    1    1
  174   1    1    1
  175   1    1    1
  176   1    1    1
  177   1    1    1
  178   1    1    1
  179   1    1    1
  180   1    1    1
  181   1    1    1
  182   1    1    1
  183   1    1    1
  184   1    1    1
  185   1    1    1
  186   1    1    1
  187   1    1    1
  188   1    1    1
  189   1    1    1
  190   1    1    1
  191   1    1    1
  192   1    1    1
  193   1    1    1
  194   1    1    1
  195   1    1    1
  196   1    1    1
  197   1    1    1
  198   1    1    1
  199   1    1    1
  200   1    1    1
  201   1    1    1
  202   1    1    1
  203   1    1    1
  204   1    1    1
  205   1    1    1
  206   1    1    1
  207   1    1    1
  208   1    1    1
  209   1    1    1
  210   1    1    1
  211   1    1    1
  212   1    1    1
  213   1    1    1
  214   1    1    1
  215   1    1    1
  216   1    1    1
  217   1    1    1
  218   1    1    1
  219   1    1    1
  220   1    1    1
  221   1    1    1
  222   1    1    1
  223   1    1    1
  224   1    1    1
  225   1    1    1
  226   1    1    1
  227   1    1    1
  228   1    1    1
  229   1    1    1
  230   1    1    1
  231   1    1    1
  232   1    1    1
  233   1    1    1
  234   1    1    1
  235   1    1    1
  236   1    1    1
  237   1    1    1
  238   1    1    1
  239   1    1    1
  240   1    1    1
  241   1    1    1
  242   1    1    1
  243   1    1    1
  244   1    1    1
  245   1    1    1
  246   1    1    1
  247   1    1    1
  248   1    1    1
  249   1    1    1
  250   1    1    1
  251   1    1    1
  252   1    1    1
  253   1    1    1
  254   1    1    1
  255   1    1    1
       